% demand
num_movements = 26;
loading_factor = [1050, 1950, 950, 1850, 850, 1000, 1900, 1000, 950, 950, 1500, 1550, 1050, 1700, 2000, 1900, 1050, 1700, 950, 1400, 1500, 900, 1100, 1950, 1250, 2000];
pickup_time = [0, 0, 0, 1, 1, 4, 4, 4, 4, 4, 5, 5, 7, 7, 7, 7, 10, 10, 12, 12, 12, 12, 12, 13, 13, 13];
delivery_time = [3, 3, 2, 3, 3, 5, 7, 5, 5, 5, 6, 7, 10, 10, 11, 12, 11, 11, 13, 13, 14, 13, 13, 14, 14, 14];

% transporter definition
total_capacity = 7000;
num_decks = 3;
capacity = [3000, 1000, 3000];

% ways out of decks
num_ways_out = 1;
paths_out = array3d(decks, ways_out, decks, [
% ways out of deck d1
2, 3, 0, 

% ways out of deck d2
3, 0, 0, 

% ways out of deck d3
0, 0, 0,	

]);

